
Gurobi 12.0.2 (win64) logging started Thu May 29 14:01:49 2025

Set parameter LogFile to value "data/solutions/avignon_LB=1000000.0/avignon_LB=1000000.0.log"
Gurobi Optimizer version 12.0.2 build v12.0.2rc0 (win64 - Windows 11.0 (26100.2))

CPU model: Intel(R) Core(TM) i5-14600KF, instruction set [SSE2|AVX|AVX2]
Thread count: 14 physical cores, 20 logical processors, using up to 1 threads

Non-default parameters:
TimeLimit  3600
FeasibilityTol  1e-07
IntFeasTol  1e-07
MIPGap  0
Threads  1
LazyConstraints  1

Academic license 2670408 - for non-commercial use only - registered to s6___@uni-bonn.de
Optimize a model with 2451 rows, 2963 columns and 10928 nonzeros
Model fingerprint: 0x3f762ead
Model has 1 quadratic constraint
Variable types: 3 continuous, 2960 integer (2960 binary)
Coefficient statistics:
  Matrix range     [5e-11, 4e+06]
  QMatrix range    [1e+00, 1e+01]
  Objective range  [1e+00, 1e+00]
  Bounds range     [1e+00, 1e+00]
  RHS range        [1e+06, 1e+06]
Warning: Model contains large matrix coefficient range
         Consider reformulating model or setting NumericFocus parameter
         to avoid numerical issues.
Presolve time: 0.00s
Presolved: 2451 rows, 2963 columns, 10920 nonzeros
Presolved model has 1 quadratic constraint(s)
Variable types: 3 continuous, 2960 integer (2960 binary)

Root relaxation: objective 0.000000e+00, 55 iterations, 0.00 seconds (0.00 work units)

    Nodes    |    Current Node    |     Objective Bounds      |     Work
 Expl Unexpl |  Obj  Depth IntInf | Incumbent    BestBd   Gap | It/Node Time

     0     0    0.00000    0    -          -    0.00000      -     -    0s
     0     0    0.00000    0   21          -    0.00000      -     -    0s
     0     0    0.00000    0    -          -    0.00000      -     -    0s
     0     0    0.00000    0   72          -    0.00000      -     -    0s
H    0     0                       4.1389714    0.00000   100%     -    0s
H    0     0                       3.2769427    0.00000   100%     -    0s
H    0     0                       3.2769427    0.00000   100%     -    0s
     0     2    0.03957    0  363    3.27694    0.03957  98.8%     -    0s
H   27    26                       1.3966707    0.07063  94.9%  95.1    0s
H   54    34                       1.3730279    0.12965  90.6%  83.2    0s
H  110    42                       1.3730279    0.89414  34.9%  68.9    0s
H  110    26                       1.2757543    0.89414  29.9%  68.9    0s
*  141     0              17       1.2288576    1.13379  7.74%  60.7    0s
H  142     0                       1.1337872    1.13379  0.00%  60.2    0s

Cutting planes:
  Lazy constraints: 3

Explored 143 nodes (9248 simplex iterations) in 0.63 seconds (1.35 work units)
Thread count was 1 (of 20 available processors)

Solution count 7: 1.13379 1.22886 1.27575 ... 4.13897

Optimal solution found (tolerance 0.00e+00)
Best objective 1.133787230920e+00, best bound 1.133787230920e+00, gap 0.0000%

User-callback calls 644, time in user-callback 0.01 sec
